
Gurobi 9.0.2 (win64) logging started Sun Dec 27 02:47:59 2020

Changed value of parameter logfile to result\SunCable-20201227T0244\scenario_2019.log
   Prev:   Default: 
Gurobi Optimizer version 9.0.2 build v9.0.2rc0 (win64)
Optimize a model with 1375389 rows, 849773 columns and 3741351 nonzeros
Model fingerprint: 0xd86b67d9
Coefficient statistics:
  Matrix range     [1e-07, 4e+05]
  Objective range  [1e+00, 1e+00]
  Bounds range     [0e+00, 0e+00]
  RHS range        [2e-05, 3e+08]
Warning: Model contains large matrix coefficient range
         Consider reformulating model or setting NumericFocus parameter
         to avoid numerical issues.

Concurrent LP optimizer: primal simplex, dual simplex, and barrier
Showing barrier log only...

Presolve removed 1261521 rows and 735893 columns
Presolve time: 2.57s
Presolved: 113868 rows, 218988 columns, 429204 nonzeros

Ordering time: 0.04s

Barrier statistics:
 AA' NZ     : 3.153e+05
 Factor NZ  : 1.929e+06 (roughly 150 MBytes of memory)
 Factor Ops : 3.960e+07 (less than 1 second per iteration)
 Threads    : 30

                  Objective                Residual
Iter       Primal          Dual         Primal    Dual     Compl     Time
   0   2.03360777e+10 -1.85321036e+10  2.65e+02 1.14e-13  2.32e+05     3s
   1   4.16937118e+09 -7.87874134e+09  1.02e+01 7.96e-13  2.88e+04     3s
   2   3.40111094e+09  2.23151419e+09  1.19e-01 1.76e-12  2.61e+03     3s
   3   3.27128903e+09  3.22676590e+09  2.38e-04 3.41e-13  9.96e+01     4s
   4   3.26759495e+09  3.26671039e+09  1.21e-07 4.26e-13  1.98e+00     4s
   5   3.26750690e+09  3.26750681e+09  6.57e-12 4.37e-13  1.94e-04     4s
   6   3.26750689e+09  3.26750689e+09  2.84e-13 2.69e-13  1.97e-10     4s

Barrier solved model in 6 iterations and 4.13 seconds
Optimal objective 3.26750689e+09


Solved with dual simplex
Solved in 8760 iterations and 5.38 seconds
Optimal objective  3.267506893e+09
Warning: unscaled primal violation = 0.000873619 and residual = 0.000873619
